Rodando pra 1h
Optimize a model with 250139 rows, 374450 columns and 2493691 nonzeros
Coefficient statistics:
  Matrix range    [1e+00, 1e+06]
  Objective range [2e-01, 2e-01]
  Bounds range    [1e+00, 1e+06]
  RHS range       [1e+00, 5e+02]
Presolve removed 0 rows and 0 columns (presolve time = 6s) ...
Presolve time: 7.87s
Presolved: 250139 rows, 374450 columns, 2493691 nonzeros
Variable types: 249600 continuous, 124850 integer (124850 binary)
Optimize a model with 250139 rows, 374450 columns and 2493691 nonzeros
Coefficient statistics:
  Matrix range    [1e+00, 1e+06]
  Objective range [2e-01, 2e-01]
  Bounds range    [1e+00, 1e+06]
  RHS range       [1e+00, 5e+02]
Presolved: 250139 rows, 374450 columns, 2493691 nonzeros


Root simplex log...

Iteration    Objective       Primal Inf.    Dual Inf.      Time
       0    0.0000000e+00   1.514975e+03   0.000000e+00     28s
    1078    0.0000000e+00   0.000000e+00   0.000000e+00     30s

Root relaxation: objective 0.000000e+00, 1078 iterations, 4.18 seconds
Total elapsed time = 351.74s
Total elapsed time = 361.65s

    Nodes    |    Current Node    |     Objective Bounds      |     Work
 Expl Unexpl |  Obj  Depth IntInf | Incumbent    BestBd   Gap | It/Node Time

     0     0    0.00000    0   28          -    0.00000      -     -  362s
     0     0    0.00000    0   27          -    0.00000      -     -  723s
     0     0    0.00000    0   28          -    0.00000      -     -  744s
     0     0    0.00000    0   28          -    0.00000      -     -  779s
     0     0          -    0               -    0.00000      -     - 3600s

Cutting planes:
  Flow cover: 39

Explored 0 nodes (406962 simplex iterations) in 3600.04 seconds
Thread count was 1 (of 4 available processors)

Time limit reached
Best objective -, best bound 0.000000000000e+00, gap -
Tempo: 3591.87 segundos

Error code = 10004
Var::get
